(set-logic SLIA)
(constraint (= (f "2283-332-44543 CAP DDT PPL445_ HEEN PAX 77820") "HEEN PAX 77820"))
(constraint (= (f "44372-33-3223 TYYTE CAP BOX 1550 244 BOX PPSSA223_ PAX") "PAX"))
(constraint (= (f "PRECISE 77 CLEAR BLUE 99WIE_ BOX 4403 PAX SSKA") "BOX 4403 PAX SSKA"))
(check-synth)
(synth-fun f ((_arg_0 String)) String ((Start String (ntString)) (ntString String ((Str A) (str.++ ntString A))) (A String ((Str ConstString) (SubStr X P P))) (P Int ((Int ntInt) (Pos X Pattern ntInt Direction))) (Pattern String ((Str ConstString) "ProperCase" "CAPS" "lowercase" "Digits" "Alphabets" "Alphanumeric" "WhiteSpace" "ProperCaseWSpaces" "CAPSWSpaces" "lowercaseSpaces" "AlphabetsWSpaces")) (X String (_arg_0)) (ConstString String (_arg_0 "" " " "_" "1" "2" "3" "4" "5" "6" "7" "8" "9" "0")) (Direction Int (0 1)) (ntInt Int (-5 -4 -3 -2 -1 0 1 2 3 4 5))))
